* Problem:    timtab1-pow2-prescaled
* Class:      LP
* Rows:       171
* Columns:    397
* Non-zeros:  829
* Format:     Free MPS
*
NAME timtab1-pow2-prescaled
ROWS
 N R0000000
 E R0000001
 E R0000002
 E R0000003
 E R0000004
 E R0000005
 E R0000006
 E R0000007
 E R0000008
 E R0000009
 E R0000010
 E R0000011
 E R0000012
 E R0000013
 E R0000014
 E R0000015
 E R0000016
 E R0000017
 E R0000018
 E R0000019
 E R0000020
 E R0000021
 E R0000022
 E R0000023
 E R0000024
 E R0000025
 E R0000026
 E R0000027
 E R0000028
 E R0000029
 E R0000030
 E R0000031
 E R0000032
 E R0000033
 E R0000034
 E R0000035
 E R0000036
 E R0000037
 E R0000038
 E R0000039
 E R0000040
 E R0000041
 E R0000042
 E R0000043
 E R0000044
 E R0000045
 E R0000046
 E R0000047
 E R0000048
 E R0000049
 E R0000050
 E R0000051
 E R0000052
 E R0000053
 E R0000054
 E R0000055
 E R0000056
 E R0000057
 E R0000058
 E R0000059
 E R0000060
 E R0000061
 E R0000062
 E R0000063
 E R0000064
 E R0000065
 E R0000066
 E R0000067
 E R0000068
 E R0000069
 E R0000070
 E R0000071
 E R0000072
 E R0000073
 E R0000074
 E R0000075
 E R0000076
 E R0000077
 E R0000078
 E R0000079
 E R0000080
 E R0000081
 E R0000082
 E R0000083
 E R0000084
 E R0000085
 E R0000086
 E R0000087
 E R0000088
 E R0000089
 E R0000090
 E R0000091
 E R0000092
 E R0000093
 E R0000094
 E R0000095
 E R0000096
 E R0000097
 E R0000098
 E R0000099
 E R0000100
 E R0000101
 E R0000102
 E R0000103
 E R0000104
 E R0000105
 E R0000106
 E R0000107
 E R0000108
 E R0000109
 E R0000110
 E R0000111
 E R0000112
 E R0000113
 E R0000114
 E R0000115
 E R0000116
 E R0000117
 E R0000118
 E R0000119
 E R0000120
 E R0000121
 E R0000122
 E R0000123
 E R0000124
 E R0000125
 E R0000126
 E R0000127
 E R0000128
 E R0000129
 E R0000130
 E R0000131
 E R0000132
 E R0000133
 E R0000134
 E R0000135
 E R0000136
 E R0000137
 E R0000138
 E R0000139
 E R0000140
 E R0000141
 E R0000142
 E R0000143
 E R0000144
 E R0000145
 E R0000146
 E R0000147
 E R0000148
 E R0000149
 E R0000150
 E R0000151
 E R0000152
 E R0000153
 E R0000154
 E R0000155
 E R0000156
 E R0000157
 E R0000158
 E R0000159
 E R0000160
 E R0000161
 E R0000162
 E R0000163
 E R0000164
 E R0000165
 E R0000166
 E R0000167
 E R0000168
 E R0000169
 E R0000170
 E R0000171
COLUMNS
 c0 R0000000 32032 R0000001 32
 c1 R0000125 32 R0000003 -32
 c1 R0000002 -32
 c2 R0000002 32
 c3 R0000000 32000 R0000125 32
 c3 R0000003 -32 R0000001 32
 c4 R0000000 32032 R0000125 32
 c4 R0000004 -32 R0000001 32
 c5 R0000004 32 R0000003 -32
 c6 R0000000 32000 R0000003 32
 c7 R0000000 32032 R0000004 32
 c8 R0000005 32
 c9 R0000006 32
 c10 R0000007 32
 c11 R0000000 44384 R0000007 -32
 c11 R0000006 -32 R0000005 32
 c11 R0000004 32
 c12 R0000008 32
 c13 R0000000 7840 R0000170 -32
 c13 R0000166 -32 R0000125 32
 c13 R0000115 -32 R0000005 -32
 c13 R0000004 -32 R0000001 32
 c14 R0000000 13984 R0000145 -32
 c14 R0000116 -32 R0000097 32
 c14 R0000096 -32 R0000092 32
 c14 R0000010 -32
 c15 R0000000 16000 R0000165 32
 c15 R0000164 32 R0000161 -32
 c15 R0000100 32 R0000089 32
 c16 R0000000 16000 R0000009 32
 c17 R0000000 23200 R0000010 32
 c18 R0000163 -32 R0000162 32
 c18 R0000161 32 R0000079 -32
 c18 R0000011 -32
 c19 R0000011 32
 c20 R0000012 32
 c21 R0000000 64064 R0000170 -32
 c21 R0000166 -32 R0000165 32
 c21 R0000164 32 R0000163 -32
 c21 R0000162 32 R0000145 -32
 c21 R0000125 32 R0000116 -32
 c21 R0000115 -32 R0000100 32
 c21 R0000097 32 R0000096 -32
 c21 R0000092 32 R0000089 32
 c21 R0000079 -32 R0000012 -32
 c21 R0000009 32 R0000008 32
 c21 R0000007 -32 R0000006 -32
 c21 R0000001 32
 c22 R0000160 -32 R0000158 32
 c22 R0000156 -32 R0000110 32
 c22 R0000103 -32 R0000064 -32
 c22 R0000053 -32 R0000016 -32
 c22 R0000015 -32 R0000014 -32
 c23 R0000013 32
 c24 R0000000 9312 R0000014 32
 c25 R0000015 32
 c26 R0000000 10592 R0000016 32
 c27 R0000000 15392 R0000158 -32
 c27 R0000106 32 R0000017 -32
 c28 R0000000 10912 R0000163 32
 c28 R0000159 -32 R0000096 32
 c28 R0000091 32 R0000018 -32
 c28 R0000012 32 R0000008 -32
 c29 R0000000 20800 R0000017 32
 c30 R0000000 16640 R0000018 32
 c31 R0000000 32000 R0000165 32
 c31 R0000164 32 R0000162 32
 c31 R0000151 32 R0000150 32
 c31 R0000149 32 R0000129 32
 c31 R0000127 32 R0000123 32
 c31 R0000106 32 R0000104 -32
 c31 R0000103 -32 R0000102 -32
 c31 R0000100 32 R0000099 -32
 c31 R0000092 32 R0000091 32
 c31 R0000089 32 R0000087 32
 c31 R0000084 -32 R0000083 -32
 c31 R0000079 -32 R0000075 32
 c31 R0000074 32 R0000073 32
 c31 R0000072 32 R0000071 32
 c31 R0000070 32 R0000069 -32
 c31 R0000068 -32 R0000067 -32
 c31 R0000066 -32 R0000065 -32
 c31 R0000064 -32 R0000063 32
 c31 R0000062 32 R0000061 -32
 c31 R0000055 -32 R0000054 -32
 c31 R0000053 -32 R0000050 32
 c31 R0000049 32 R0000047 32
 c31 R0000042 -32 R0000041 -32
 c31 R0000033 -32 R0000032 -32
 c31 R0000031 -32 R0000030 -32
 c31 R0000026 32 R0000025 32
 c31 R0000009 32
 c32 R0000157 -32 R0000156 -32
 c32 R0000151 -32 R0000149 -32
 c32 R0000112 -32 R0000104 32
 c32 R0000099 32 R0000087 -32
 c32 R0000075 -32 R0000073 -32
 c32 R0000068 32 R0000061 32
 c32 R0000049 -32 R0000021 -32
 c32 R0000020 -32
 c33 R0000170 -32 R0000166 -32
 c33 R0000155 -32 R0000154 -32
 c33 R0000150 -32 R0000146 32
 c33 R0000145 -32 R0000138 32
 c33 R0000129 -32 R0000127 -32
 c33 R0000125 32 R0000123 -32
 c33 R0000121 32 R0000116 -32
 c33 R0000115 -32 R0000113 32
 c33 R0000112 32 R0000111 32
 c33 R0000110 32 R0000102 32
 c33 R0000097 32 R0000083 32
 c33 R0000072 -32 R0000071 -32
 c33 R0000069 32 R0000066 32
 c33 R0000065 32 R0000063 -32
 c33 R0000062 -32 R0000054 32
 c33 R0000050 -32 R0000047 -32
 c33 R0000027 32 R0000019 -32
 c33 R0000007 -32 R0000006 -32
 c33 R0000001 32
 c34 R0000155 32 R0000154 32
 c34 R0000153 32 R0000146 -32
 c34 R0000138 -32 R0000121 -32
 c34 R0000113 -32 R0000074 -32
 c34 R0000067 32
 c35 R0000019 32
 c36 R0000160 -32 R0000159 -32
 c36 R0000157 32 R0000111 -32
 c36 R0000084 32 R0000070 -32
 c36 R0000055 32 R0000013 32
 c37 R0000020 32
 c38 R0000000 8000 R0000021 32
 c39 R0000000 32032 R0000153 -32
 c39 R0000042 32 R0000041 32
 c39 R0000029 32 R0000028 32
 c40 R0000000 7264 R0000033 32
 c40 R0000032 32 R0000031 32
 c40 R0000030 32 R0000029 -32
 c40 R0000028 -32 R0000027 -32
 c40 R0000026 -32 R0000025 -32
 c40 R0000024 -32 R0000023 -32
 c40 R0000022 -32
 c41 R0000000 10816 R0000022 32
 c42 R0000023 32
 c43 R0000000 30528 R0000024 32
 c44 R0000025 32
 c45 R0000026 32
 c46 R0000000 64064 R0000027 32
 c47 R0000028 32
 c48 R0000029 32
 c49 R0000000 10666.666667 R0000030 32
 c50 R0000000 10666.666667 R0000031 32
 c51 R0000000 21333.333333 R0000032 32
 c52 R0000000 21333.333333 R0000033 32
 c53 R0000000 10666.666667 R0000152 -32
 c53 R0000080 32 R0000034 -32
 c53 R0000026 -32 R0000025 -32
 c54 R0000000 10666.666667 R0000034 32
 c55 R0000152 -32 R0000098 32
 c55 R0000036 -32 R0000031 -32
 c55 R0000030 -32
 c56 R0000000 32032 R0000035 32
 c57 R0000036 32
 c58 R0000000 32032 R0000037 32
 c59 R0000038 32
 c60 R0000039 32
 c61 R0000000 26336 R0000098 -32
 c61 R0000080 32 R0000040 -32
 c61 R0000039 -32 R0000038 -32
 c61 R0000037 -32 R0000035 -32
 c61 R0000033 32 R0000032 32
 c61 R0000031 32 R0000030 32
 c61 R0000026 -32 R0000025 -32
 c62 R0000000 14080 R0000040 32
 c63 R0000000 32000 R0000041 32
 c64 R0000000 32000 R0000042 32
 c65 R0000000 11872 R0000043 32
 c66 R0000000 32032 R0000044 -32
 c66 R0000043 -32 R0000042 32
 c66 R0000041 32 R0000039 32
 c66 R0000038 32
 c67 R0000000 32032 R0000044 32
 c68 R0000045 32
 c69 R0000046 32
 c70 R0000000 32032 R0000047 32
 c71 R0000000 7392 R0000048 32
 c72 R0000049 32
 c73 R0000051 -32 R0000050 -32
 c73 R0000049 -32 R0000048 -32
 c73 R0000047 -32 R0000046 32
 c73 R0000045 32 R0000044 32
 c74 R0000000 15040 R0000050 32
 c75 R0000000 16640 R0000051 32
 c76 R0000000 7520 R0000063 32
 c76 R0000062 32 R0000061 -32
 c76 R0000060 -32 R0000059 -32
 c76 R0000058 -32 R0000057 -32
 c76 R0000056 -32 R0000055 -32
 c76 R0000054 -32 R0000053 -32
 c76 R0000052 -32 R0000051 -32
 c76 R0000048 -32
 c77 R0000000 9440 R0000052 32
 c78 R0000000 20800 R0000053 32
 c79 R0000000 16000 R0000054 32
 c80 R0000000 16000 R0000055 32
 c81 R0000056 32
 c82 R0000057 32
 c83 R0000058 32
 c84 R0000000 15168 R0000059 32
 c85 R0000000 29088 R0000060 32
 c86 R0000000 9056 R0000061 32
 c87 R0000000 12288 R0000062 32
 c88 R0000000 32032 R0000063 32
 c89 R0000064 32
 c90 R0000000 35200 R0000065 32
 c91 R0000000 15680 R0000066 32
 c92 R0000000 14848 R0000067 32
 c93 R0000000 32000 R0000068 32
 c94 R0000080 -32 R0000079 32
 c95 R0000069 32
 c96 R0000080 -32 R0000079 32
 c96 R0000078 -32 R0000077 -32
 c96 R0000076 -32 R0000075 -32
 c96 R0000074 -32 R0000073 -32
 c96 R0000072 -32 R0000071 -32
 c96 R0000070 -32 R0000069 32
 c96 R0000068 32 R0000067 32
 c96 R0000066 32 R0000065 32
 c96 R0000064 32 R0000058 -32
 c97 R0000070 32
 c98 R0000071 32
 c99 R0000072 32
 c100 R0000073 32
 c101 R0000074 32
 c102 R0000000 32000 R0000075 32
 c103 R0000000 9184 R0000076 32
 c104 R0000077 32
 c105 R0000078 32
 c106 R0000000 32032 R0000079 32
 c107 R0000000 32032 R0000080 32
 c108 R0000088 32 R0000087 32
 c108 R0000086 32 R0000085 32
 c108 R0000084 -32 R0000083 -32
 c108 R0000082 -32 R0000081 -32
 c108 R0000078 -32 R0000057 32
 c109 R0000000 16640 R0000081 32
 c110 R0000000 35200 R0000082 32
 c111 R0000000 16000 R0000083 32
 c112 R0000000 16000 R0000084 32
 c113 R0000085 32
 c114 R0000000 32032 R0000086 32
 c115 R0000087 32
 c116 R0000088 32
 c117 R0000000 10784 R0000100 -32
 c117 R0000099 32 R0000098 32
 c118 R0000000 9984 R0000100 32
 c118 R0000099 -32 R0000098 -32
 c118 R0000092 32 R0000091 32
 c118 R0000090 32 R0000089 32
 c118 R0000086 -32
 c119 R0000089 32
 c120 R0000090 32
 c121 R0000091 32
 c122 R0000000 32032 R0000092 32
 c123 R0000000 16000 R0000094 -32
 c123 R0000093 -32 R0000092 32
 c124 R0000093 32
 c125 R0000000 16000 R0000094 32
 c126 R0000000 16000 R0000095 32
 c127 R0000096 32 R0000095 -32
 c127 R0000094 -32
 c128 R0000000 32032 R0000096 32
 c129 R0000000 32032 R0000097 32
 c130 R0000000 16000 R0000097 32
 c130 R0000095 -32 R0000093 32
 c131 R0000000 32032 R0000098 32
 c132 R0000099 32
 c133 R0000000 32032 R0000100 32
 c134 R0000106 32 R0000105 -32
 c134 R0000104 -32 R0000103 -32
 c134 R0000102 -32 R0000101 -32
 c134 R0000088 -32 R0000077 -32
 c134 R0000056 32
 c135 R0000000 11712 R0000101 32
 c136 R0000000 15648 R0000102 32
 c137 R0000000 32000 R0000103 32
 c138 R0000104 32
 c139 R0000000 28992 R0000105 32
 c140 R0000000 32032 R0000106 32
 c141 R0000000 32032 R0000107 32
 c142 R0000107 -32 R0000106 32
 c143 R0000000 32000 R0000107 32
 c144 R0000000 32032 R0000107 32
 c145 R0000000 32032 R0000108 32
 c146 R0000000 7424 R0000109 32
 c147 R0000110 32
 c148 R0000111 32
 c149 R0000112 32
 c150 R0000114 -32 R0000113 -32
 c150 R0000112 -32 R0000111 -32
 c150 R0000110 -32 R0000109 32
 c150 R0000108 32 R0000102 -32
 c150 R0000083 -32 R0000069 -32
 c150 R0000054 -32
 c151 R0000000 9376 R0000113 32
 c152 R0000000 22496 R0000114 32
 c153 R0000000 32032 R0000115 32
 c154 R0000000 15968 R0000116 32
 c155 R0000117 32
 c156 R0000000 32032 R0000118 32
 c157 R0000000 18560 R0000119 32
 c158 R0000000 7904 R0000171 32
 c158 R0000147 32 R0000125 -32
 c158 R0000124 32 R0000123 32
 c158 R0000122 -32 R0000121 -32
 c158 R0000120 -32 R0000119 -32
 c158 R0000118 -32 R0000117 -32
 c158 R0000116 32 R0000115 32
 c158 R0000109 -32 R0000001 -32
 c159 R0000171 -32 R0000147 -32
 c159 R0000126 -32 R0000001 32
 c160 R0000126 32 R0000125 32
 c160 R0000124 -32 R0000123 -32
 c161 R0000000 19200 R0000120 32
 c162 R0000000 16640 R0000121 32
 c163 R0000122 32
 c164 R0000000 32032 R0000123 32
 c165 R0000124 32
 c166 R0000000 32032 R0000125 32
 c167 R0000126 32
 c168 R0000144 -32 R0000140 -32
 c168 R0000128 -32 R0000118 32
 c169 R0000000 32032 R0000127 32
 c170 R0000128 32
 c171 R0000000 32032 R0000129 32
 c172 R0000000 15232 R0000130 32
 c173 R0000000 32000 R0000143 -32
 c173 R0000140 -32 R0000134 -32
 c173 R0000132 -32 R0000131 -32
 c173 R0000130 32 R0000129 32
 c173 R0000127 32 R0000119 32
 c173 R0000118 32 R0000047 32
 c174 R0000144 -32 R0000143 32
 c174 R0000134 32 R0000133 -32
 c174 R0000047 -32
 c175 R0000000 16000 R0000131 32
 c176 R0000000 16000 R0000132 32
 c177 R0000133 32
 c178 R0000000 16000 R0000134 32
 c179 R0000000 8352 R0000138 32
 c179 R0000137 32 R0000136 32
 c179 R0000135 32 R0000134 -32
 c179 R0000132 -32
 c180 R0000135 32
 c181 R0000136 32
 c182 R0000137 32
 c183 R0000000 32032 R0000138 32
 c184 R0000139 32
 c185 R0000141 32 R0000140 -32
 c185 R0000139 -32 R0000135 -32
 c186 R0000000 32000 R0000140 32
 c187 R0000000 32032 R0000141 32
 c188 R0000142 32
 c189 R0000000 16000 R0000143 32
 c190 R0000000 32032 R0000143 32
 c190 R0000142 32 R0000139 -32
 c190 R0000136 32 R0000131 32
 c191 R0000000 32032 R0000171 -32
 c191 R0000170 32 R0000166 32
 c191 R0000150 32 R0000143 -32
 c191 R0000142 -32 R0000139 32
 c191 R0000138 -32 R0000136 -32
 c191 R0000131 -32 R0000130 32
 c191 R0000129 32 R0000127 32
 c191 R0000119 32 R0000118 32
 c191 R0000097 -32 R0000063 32
 c191 R0000062 32 R0000050 32
 c191 R0000047 32 R0000007 32
 c191 R0000006 32
 c192 R0000000 17280 R0000171 32
 c192 R0000170 -32 R0000169 -32
 c192 R0000168 -32 R0000167 32
 c192 R0000150 -32 R0000141 -32
 c192 R0000062 -32 R0000050 -32
 c192 R0000006 -32
 c193 R0000000 13792 R0000169 32
 c193 R0000168 32 R0000167 -32
 c193 R0000166 -32 R0000097 32
 c193 R0000063 -32 R0000007 -32
 c194 R0000144 32
 c195 R0000000 32032 R0000145 32
 c196 R0000000 10496 R0000147 -32
 c196 R0000146 -32 R0000145 32
 c196 R0000130 -32 R0000124 -32
 c196 R0000122 32 R0000117 32
 c196 R0000108 -32
 c197 R0000000 16640 R0000146 32
 c198 R0000147 32
 c199 R0000148 32
 c200 R0000149 32
 c201 R0000150 -32 R0000149 -32
 c201 R0000148 32 R0000129 -32
 c201 R0000060 -32 R0000052 -32
 c201 R0000046 -32 R0000043 32
 c201 R0000037 32
 c202 R0000000 19200 R0000150 32
 c203 R0000151 32
 c204 R0000151 -32 R0000148 -32
 c204 R0000127 -32 R0000063 -32
 c204 R0000062 -32 R0000061 32
 c204 R0000060 32 R0000058 32
 c204 R0000057 32 R0000056 32
 c204 R0000055 32 R0000054 32
 c204 R0000053 32 R0000052 32
 c204 R0000051 32 R0000048 32
 c204 R0000045 -32 R0000035 32
 c205 R0000000 10666.666667 R0000152 32
 c206 R0000000 32032 R0000153 32
 c207 R0000154 32
 c208 R0000155 32
 c209 R0000156 32
 c210 R0000157 32
 c211 R0000000 64064 R0000165 32
 c211 R0000164 32 R0000162 32
 c211 R0000123 32 R0000100 32
 c211 R0000099 -32 R0000098 -32
 c211 R0000092 32 R0000091 32
 c211 R0000089 32 R0000086 -32
 c211 R0000009 32
 c212 R0000000 32032 R0000158 32
 c213 R0000000 32032 R0000159 32
 c214 R0000160 32
 c215 R0000000 16000 R0000161 32
 c216 R0000000 16000 R0000162 32
 c217 R0000163 32
 c218 R0000164 32
 c219 R0000165 32
 c220 R0000166 32
 c221 R0000000 23008 R0000167 32
 c222 R0000168 32
 c223 R0000169 32
 c224 R0000170 32
 c225 R0000000 32032 R0000171 32
 c226 R0000001 -60
 c227 R0000002 -60
 c228 R0000003 -60
 c229 R0000004 -60
 c230 R0000005 -60
 c231 R0000006 -60
 c232 R0000007 -60
 c233 R0000008 -60
 c234 R0000009 -60
 c235 R0000010 -60
 c236 R0000011 -60
 c237 R0000012 -60
 c238 R0000013 -60
 c239 R0000014 -60
 c240 R0000015 -60
 c241 R0000016 -60
 c242 R0000017 -60
 c243 R0000018 -60
 c244 R0000019 -60
 c245 R0000020 -60
 c246 R0000021 -60
 c247 R0000022 -60
 c248 R0000023 -60
 c249 R0000024 -60
 c250 R0000025 -60
 c251 R0000026 -60
 c252 R0000027 -60
 c253 R0000028 -60
 c254 R0000029 -60
 c255 R0000030 -60
 c256 R0000031 -60
 c257 R0000032 -60
 c258 R0000033 -60
 c259 R0000034 -60
 c260 R0000035 -60
 c261 R0000036 -60
 c262 R0000037 -60
 c263 R0000038 -60
 c264 R0000039 -60
 c265 R0000040 -60
 c266 R0000041 -60
 c267 R0000042 -60
 c268 R0000043 -60
 c269 R0000044 -60
 c270 R0000045 -60
 c271 R0000046 -60
 c272 R0000047 -60
 c273 R0000048 -60
 c274 R0000049 -60
 c275 R0000050 -60
 c276 R0000051 -60
 c277 R0000052 -60
 c278 R0000053 -60
 c279 R0000054 -60
 c280 R0000055 -60
 c281 R0000056 -60
 c282 R0000057 -60
 c283 R0000058 -60
 c284 R0000059 -60
 c285 R0000060 -60
 c286 R0000061 -60
 c287 R0000062 -60
 c288 R0000063 -60
 c289 R0000064 -60
 c290 R0000065 -60
 c291 R0000066 -60
 c292 R0000067 -60
 c293 R0000068 -60
 c294 R0000069 -60
 c295 R0000070 -60
 c296 R0000071 -60
 c297 R0000072 -60
 c298 R0000073 -60
 c299 R0000074 -60
 c300 R0000075 -60
 c301 R0000076 -60
 c302 R0000077 -60
 c303 R0000078 -60
 c304 R0000079 -60
 c305 R0000080 -60
 c306 R0000081 -60
 c307 R0000082 -60
 c308 R0000083 -60
 c309 R0000084 -60
 c310 R0000085 -60
 c311 R0000086 -60
 c312 R0000087 -60
 c313 R0000088 -60
 c314 R0000089 -60
 c315 R0000090 -60
 c316 R0000091 -60
 c317 R0000092 -60
 c318 R0000093 -60
 c319 R0000094 -60
 c320 R0000095 -60
 c321 R0000096 -60
 c322 R0000097 -60
 c323 R0000098 -60
 c324 R0000099 -60
 c325 R0000100 -60
 c326 R0000101 -60
 c327 R0000102 -60
 c328 R0000103 -60
 c329 R0000104 -60
 c330 R0000105 -60
 c331 R0000106 -60
 c332 R0000107 -60
 c333 R0000108 -60
 c334 R0000109 -60
 c335 R0000110 -60
 c336 R0000111 -60
 c337 R0000112 -60
 c338 R0000113 -60
 c339 R0000114 -60
 c340 R0000115 -60
 c341 R0000116 -60
 c342 R0000117 -60
 c343 R0000118 -60
 c344 R0000119 -60
 c345 R0000120 -60
 c346 R0000121 -60
 c347 R0000122 -60
 c348 R0000123 -60
 c349 R0000124 -60
 c350 R0000125 -60
 c351 R0000126 -60
 c352 R0000127 -60
 c353 R0000128 -60
 c354 R0000129 -60
 c355 R0000130 -60
 c356 R0000131 -60
 c357 R0000132 -60
 c358 R0000133 -60
 c359 R0000134 -60
 c360 R0000135 -60
 c361 R0000136 -60
 c362 R0000137 -60
 c363 R0000138 -60
 c364 R0000139 -60
 c365 R0000140 -60
 c366 R0000141 -60
 c367 R0000142 -60
 c368 R0000143 -60
 c369 R0000144 -60
 c370 R0000145 -60
 c371 R0000146 -60
 c372 R0000147 -60
 c373 R0000148 -60
 c374 R0000149 -60
 c375 R0000150 -60
 c376 R0000151 -60
 c377 R0000152 -60
 c378 R0000153 -60
 c379 R0000154 -60
 c380 R0000155 -60
 c381 R0000156 -60
 c382 R0000157 -60
 c383 R0000158 -60
 c384 R0000159 -60
 c385 R0000160 -60
 c386 R0000161 -60
 c387 R0000162 -60
 c388 R0000163 -60
 c389 R0000164 -60
 c390 R0000165 -60
 c391 R0000166 -60
 c392 R0000167 -60
 c393 R0000168 -60
 c394 R0000169 -60
 c395 R0000170 -60
 c396 R0000171 -60
RHS
 RHS1 R0000001 -35 R0000002 -1
 RHS1 R0000003 -115 R0000004 -24
 RHS1 R0000005 -31 R0000006 -91
 RHS1 R0000007 -80 R0000009 2
 RHS1 R0000010 -30 R0000011 -30
 RHS1 R0000012 22 R0000013 24
 RHS1 R0000014 -1 R0000015 -30
 RHS1 R0000016 -31 R0000017 -30
 RHS1 R0000018 -30 R0000019 -30
 RHS1 R0000020 -30 R0000021 -31
 RHS1 R0000022 -1 R0000023 -30
 RHS1 R0000024 -31 R0000025 -122
 RHS1 R0000026 -152 R0000028 1
 RHS1 R0000029 -29 R0000030 -59
 RHS1 R0000031 -89 R0000033 -30
 RHS1 R0000034 -30 R0000036 -30
 RHS1 R0000037 -30 R0000038 1
 RHS1 R0000039 -29 R0000040 -30
 RHS1 R0000041 -14 R0000042 -44
 RHS1 R0000043 -6 R0000044 27
 RHS1 R0000045 -3 R0000046 -3
 RHS1 R0000047 -156 R0000048 -60
 RHS1 R0000049 -68 R0000050 -134
 RHS1 R0000051 -59 R0000052 -60
 RHS1 R0000053 -167 R0000054 -145
 RHS1 R0000055 -108 R0000056 -45
 RHS1 R0000057 -45 R0000058 -99
 RHS1 R0000059 -59 R0000060 -59
 RHS1 R0000061 -116 R0000062 -138
 RHS1 R0000063 -136 R0000064 -73
 RHS1 R0000065 -27 R0000066 -57
 RHS1 R0000067 -57 R0000068 -56
 RHS1 R0000069 -87 R0000070 -78
 RHS1 R0000071 -98 R0000072 -68
 RHS1 R0000073 -49 R0000074 -68
 RHS1 R0000075 -86 R0000076 -30
 RHS1 R0000077 -57 R0000078 -57
 RHS1 R0000079 -99 R0000080 -88
 RHS1 R0000081 -1 R0000082 -30
 RHS1 R0000083 -163 R0000084 -66
 RHS1 R0000085 24 R0000087 -54
 RHS1 R0000088 -3 R0000089 55
 RHS1 R0000090 23 R0000091 39
 RHS1 R0000092 29 R0000093 -3
 RHS1 R0000094 -63 R0000095 -57
 RHS1 R0000096 -6 R0000097 54
 RHS1 R0000098 -101 R0000099 -102
 RHS1 R0000100 -58 R0000101 -1
 RHS1 R0000102 -138 R0000103 -150
 RHS1 R0000104 -72 R0000105 -30
 RHS1 R0000106 2 R0000107 -22
 RHS1 R0000108 -1 R0000109 -3
 RHS1 R0000110 -16 R0000111 -100
 RHS1 R0000112 -71 R0000113 -90
 RHS1 R0000114 -30 R0000115 -74
 RHS1 R0000116 -75 R0000117 -1
 RHS1 R0000118 -22 R0000119 -53
 RHS1 R0000120 -30 R0000121 -90
 RHS1 R0000122 -15 R0000123 -75
 RHS1 R0000124 -110 R0000125 -31
 RHS1 R0000126 -3 R0000127 -97
 RHS1 R0000128 -30 R0000129 -67
 RHS1 R0000130 -53 R0000131 -45
 RHS1 R0000132 -72 R0000133 -30
 RHS1 R0000134 -73 R0000135 -3
 RHS1 R0000136 26 R0000137 56
 RHS1 R0000138 -33 R0000139 -30
 RHS1 R0000140 -133 R0000142 29
 RHS1 R0000143 -46 R0000144 -59
 RHS1 R0000145 -82 R0000146 -90
 RHS1 R0000147 -110 R0000148 -3
 RHS1 R0000149 -68 R0000150 -134
 RHS1 R0000151 -68 R0000152 -59
 RHS1 R0000153 27 R0000154 -33
 RHS1 R0000155 -3 R0000156 -58
 RHS1 R0000157 -34 R0000159 -84
 RHS1 R0000160 -87 R0000161 -3
 RHS1 R0000162 59 R0000163 -5
 RHS1 R0000164 29 R0000165 59
 RHS1 R0000166 -168 R0000167 -50
 RHS1 R0000168 -1 R0000169 -16
 RHS1 R0000170 -119 R0000171 -15
BOUNDS
 UP BND1 c0 0.125
 UP BND1 c1 1.6875
 UP BND1 c2 1.6875
 UP BND1 c3 1.84375
 UP BND1 c4 0.125
 UP BND1 c5 1.6875
 UP BND1 c6 1.84375
 UP BND1 c7 0.125
 UP BND1 c8 1.5
 UP BND1 c9 1.8125
 UP BND1 c10 1.8125
 UP BND1 c11 0.125
 UP BND1 c12 1.625
 UP BND1 c13 1.84375
 UP BND1 c14 1.84375
 UP BND1 c15 1.84375
 UP BND1 c16 1.84375
 UP BND1 c17 1.84375
 UP BND1 c18 1.6875
 UP BND1 c19 1.6875
 UP BND1 c20 1.625
 UP BND1 c21 0.125
 UP BND1 c22 1.6875
 UP BND1 c23 1.6875
 UP BND1 c24 1.84375
 UP BND1 c25 1.6875
 UP BND1 c26 1.84375
 UP BND1 c27 1.84375
 UP BND1 c28 1.84375
 UP BND1 c29 1.84375
 UP BND1 c30 1.84375
 UP BND1 c31 1.84375
 UP BND1 c32 1.6875
 UP BND1 c33 1.59375
 UP BND1 c34 1.59375
 UP BND1 c35 1.59375
 UP BND1 c36 1.6875
 UP BND1 c37 1.6875
 UP BND1 c38 1.84375
 UP BND1 c39 0.1875
 UP BND1 c40 1.6875
 UP BND1 c41 1.6875
 UP BND1 c42 1.6875
 UP BND1 c43 1.6875
 UP BND1 c44 1.78125
 UP BND1 c45 1.78125
 UP BND1 c46 0.1875
 UP BND1 c47 1.6875
 UP BND1 c48 1.6875
 UP BND1 c49 1.84375
 UP BND1 c50 1.84375
 UP BND1 c51 1.84375
 UP BND1 c52 1.84375
 UP BND1 c53 1.84375
 UP BND1 c54 1.84375
 UP BND1 c55 1.8125
 UP BND1 c56 0.1875
 UP BND1 c57 1.8125
 UP BND1 c58 0.1875
 UP BND1 c59 1.6875
 UP BND1 c60 1.6875
 UP BND1 c61 1.6875
 UP BND1 c62 1.6875
 UP BND1 c63 1.84375
 UP BND1 c64 1.84375
 UP BND1 c65 1.84375
 UP BND1 c66 0.1875
 UP BND1 c67 0.1875
 UP BND1 c68 1.6875
 UP BND1 c69 1.6875
 UP BND1 c70 0.125
 UP BND1 c71 1.84375
 UP BND1 c72 1.625
 UP BND1 c73 1.59375
 UP BND1 c74 1.84375
 UP BND1 c75 1.6875
 UP BND1 c76 1.84375
 UP BND1 c77 1.84375
 UP BND1 c78 1.84375
 UP BND1 c79 1.84375
 UP BND1 c80 1.84375
 UP BND1 c81 1.6875
 UP BND1 c82 1.6875
 UP BND1 c83 1.6875
 UP BND1 c84 1.6875
 UP BND1 c85 1.6875
 UP BND1 c86 1.625
 UP BND1 c87 1.84375
 UP BND1 c88 0.125
 UP BND1 c89 1.65625
 UP BND1 c90 1.84375
 UP BND1 c91 1.84375
 UP BND1 c92 1.84375
 UP BND1 c93 1.84375
 UP BND1 c94 1.5625
 UP BND1 c95 1.625
 UP BND1 c96 1.6875
 UP BND1 c97 1.65625
 UP BND1 c98 1.625
 UP BND1 c99 1.625
 UP BND1 c100 1.65625
 UP BND1 c101 1.625
 UP BND1 c102 1.84375
 UP BND1 c103 1.6875
 UP BND1 c104 1.6875
 UP BND1 c105 1.6875
 UP BND1 c106 0.125
 UP BND1 c107 0.15625
 UP BND1 c108 1.6875
 UP BND1 c109 1.84375
 UP BND1 c110 1.84375
 UP BND1 c111 1.84375
 UP BND1 c112 1.84375
 UP BND1 c113 1.6875
 UP BND1 c114 0.125
 UP BND1 c115 1.6875
 UP BND1 c116 1.6875
 UP BND1 c117 1.84375
 UP BND1 c118 1.65625
 UP BND1 c119 1.65625
 UP BND1 c120 1.65625
 UP BND1 c121 1.75
 UP BND1 c122 0.125
 UP BND1 c123 1.84375
 UP BND1 c124 1.6875
 UP BND1 c125 1.21875
 UP BND1 c126 1.84375
 UP BND1 c127 1.6875
 UP BND1 c128 0.125
 UP BND1 c129 0.125
 UP BND1 c130 1.84375
 UP BND1 c131 0.15625
 UP BND1 c132 1.59375
 UP BND1 c133 0.125
 UP BND1 c134 1.6875
 UP BND1 c135 1.84375
 UP BND1 c136 1.84375
 UP BND1 c137 1.84375
 UP BND1 c138 1.6875
 UP BND1 c139 1.6875
 UP BND1 c140 0.125
 UP BND1 c141 0.125
 UP BND1 c142 1.75
 UP BND1 c143 1.84375
 UP BND1 c144 0.125
 UP BND1 c145 0.125
 UP BND1 c146 1.84375
 UP BND1 c147 1.6875
 UP BND1 c148 1.6875
 UP BND1 c149 1.6875
 UP BND1 c150 1.6875
 UP BND1 c151 1.6875
 UP BND1 c152 1.6875
 UP BND1 c153 0.125
 UP BND1 c154 1.84375
 UP BND1 c155 1.8125
 UP BND1 c156 0.125
 UP BND1 c157 1.84375
 UP BND1 c158 1.84375
 UP BND1 c159 1.8125
 UP BND1 c160 1.8125
 UP BND1 c161 1.84375
 UP BND1 c162 1.84375
 UP BND1 c163 1.625
 UP BND1 c164 0.125
 UP BND1 c165 1.8125
 UP BND1 c166 0.125
 UP BND1 c167 1.53125
 UP BND1 c168 1.8125
 UP BND1 c169 0.125
 UP BND1 c170 1.8125
 UP BND1 c171 0.125
 UP BND1 c172 1.84375
 UP BND1 c173 1.84375
 UP BND1 c174 1.8125
 UP BND1 c175 1.84375
 UP BND1 c176 1.84375
 UP BND1 c177 1.8125
 UP BND1 c178 1.84375
 UP BND1 c179 1.84375
 UP BND1 c180 1.78125
 UP BND1 c181 1.8125
 UP BND1 c182 1.8125
 UP BND1 c183 0.125
 UP BND1 c184 1.78125
 UP BND1 c185 1.78125
 UP BND1 c186 1.84375
 UP BND1 c187 0.125
 UP BND1 c188 1.8125
 UP BND1 c189 1.84375
 UP BND1 c190 0.125
 UP BND1 c191 0.125
 UP BND1 c192 1.84375
 UP BND1 c193 1.84375
 UP BND1 c194 1.8125
 UP BND1 c195 0.125
 UP BND1 c196 1.84375
 UP BND1 c197 1.84375
 UP BND1 c198 1.8125
 UP BND1 c199 1.6875
 UP BND1 c200 1.625
 UP BND1 c201 1.59375
 UP BND1 c202 1.84375
 UP BND1 c203 1.625
 UP BND1 c204 1.59375
 UP BND1 c205 1.84375
 UP BND1 c206 0.1875
 UP BND1 c207 1.6875
 UP BND1 c208 1.6875
 UP BND1 c209 1.65625
 UP BND1 c210 1.65625
 UP BND1 c211 0.125
 UP BND1 c212 0.125
 UP BND1 c213 0.125
 UP BND1 c214 1.6875
 UP BND1 c215 1.84375
 UP BND1 c216 1.84375
 UP BND1 c217 1.625
 UP BND1 c218 1.6875
 UP BND1 c219 1.6875
 UP BND1 c220 1.8125
 UP BND1 c221 1.84375
 UP BND1 c222 1.8125
 UP BND1 c223 1.625
 UP BND1 c224 1.8125
 UP BND1 c225 0.125
 UP BND1 c226 4
 FX BND1 c227 0
 UP BND1 c228 2
 UP BND1 c229 1
 UP BND1 c230 1
 UP BND1 c231 2
 UP BND1 c232 2
 FX BND1 c233 0
 UP BND1 c234 2
 UP BND1 c235 1
 UP BND1 c236 1
 UP BND1 c237 1
 UP BND1 c238 1
 UP BND1 c239 1
 UP BND1 c240 1
 UP BND1 c241 1
 UP BND1 c242 1
 UP BND1 c243 1
 UP BND1 c244 1
 UP BND1 c245 1
 UP BND1 c246 1
 FX BND1 c247 0
 UP BND1 c248 1
 UP BND1 c249 1
 UP BND1 c250 3
 UP BND1 c251 4
 FX BND1 c252 0
 FX BND1 c253 0
 UP BND1 c254 1
 UP BND1 c255 3
 UP BND1 c256 4
 UP BND1 c257 2
 UP BND1 c258 3
 UP BND1 c259 1
 FX BND1 c260 0
 UP BND1 c261 1
 UP BND1 c262 1
 FX BND1 c263 0
 UP BND1 c264 1
 UP BND1 c265 1
 UP BND1 c266 1
 UP BND1 c267 1
 UP BND1 c268 1
 FX BND1 c269 0
 UP BND1 c270 1
 UP BND1 c271 1
 UP BND1 c272 4
 UP BND1 c273 2
 UP BND1 c274 2
 UP BND1 c275 4
 UP BND1 c276 2
 UP BND1 c277 2
 UP BND1 c278 4
 UP BND1 c279 5
 UP BND1 c280 4
 UP BND1 c281 3
 UP BND1 c282 3
 UP BND1 c283 3
 UP BND1 c284 1
 UP BND1 c285 2
 UP BND1 c286 4
 UP BND1 c287 5
 UP BND1 c288 4
 UP BND1 c289 3
 UP BND1 c290 3
 UP BND1 c291 3
 UP BND1 c292 3
 UP BND1 c293 3
 UP BND1 c294 4
 UP BND1 c295 3
 UP BND1 c296 3
 UP BND1 c297 2
 UP BND1 c298 2
 UP BND1 c299 2
 UP BND1 c300 3
 UP BND1 c301 1
 UP BND1 c302 1
 UP BND1 c303 1
 UP BND1 c304 3
 UP BND1 c305 3
 UP BND1 c306 1
 UP BND1 c307 1
 UP BND1 c308 4
 UP BND1 c309 2
 UP BND1 c310 1
 FX BND1 c311 0
 UP BND1 c312 3
 UP BND1 c313 1
 UP BND1 c314 2
 UP BND1 c315 1
 UP BND1 c316 3
 UP BND1 c317 3
 UP BND1 c318 1
 UP BND1 c319 1
 UP BND1 c320 1
 UP BND1 c321 2
 UP BND1 c322 3
 UP BND1 c323 3
 UP BND1 c324 4
 UP BND1 c325 4
 UP BND1 c326 1
 UP BND1 c327 4
 UP BND1 c328 3
 UP BND1 c329 3
 UP BND1 c330 1
 UP BND1 c331 3
 UP BND1 c332 1
 FX BND1 c333 0
 UP BND1 c334 1
 UP BND1 c335 2
 UP BND1 c336 3
 UP BND1 c337 2
 UP BND1 c338 3
 UP BND1 c339 1
 UP BND1 c340 2
 UP BND1 c341 3
 UP BND1 c342 1
 UP BND1 c343 2
 UP BND1 c344 2
 UP BND1 c345 1
 UP BND1 c346 3
 UP BND1 c347 2
 UP BND1 c348 3
 UP BND1 c349 3
 UP BND1 c350 5
 UP BND1 c351 1
 UP BND1 c352 3
 UP BND1 c353 1
 UP BND1 c354 3
 UP BND1 c355 2
 UP BND1 c356 1
 UP BND1 c357 2
 UP BND1 c358 1
 UP BND1 c359 3
 UP BND1 c360 1
 UP BND1 c361 1
 UP BND1 c362 1
 UP BND1 c363 2
 UP BND1 c364 1
 UP BND1 c365 3
 UP BND1 c366 1
 FX BND1 c367 0
 UP BND1 c368 2
 UP BND1 c369 1
 UP BND1 c370 2
 UP BND1 c371 3
 UP BND1 c372 3
 UP BND1 c373 1
 UP BND1 c374 2
 UP BND1 c375 4
 UP BND1 c376 2
 UP BND1 c377 1
 FX BND1 c378 0
 UP BND1 c379 2
 UP BND1 c380 1
 UP BND1 c381 1
 UP BND1 c382 2
 FX BND1 c383 0
 UP BND1 c384 1
 UP BND1 c385 2
 UP BND1 c386 1
 UP BND1 c387 2
 UP BND1 c388 1
 UP BND1 c389 2
 UP BND1 c390 2
 UP BND1 c391 3
 UP BND1 c392 2
 UP BND1 c393 1
 UP BND1 c394 2
 UP BND1 c395 3
 UP BND1 c396 2
ENDATA
